Graphene
 1.0000 
  85.05714285714286 0.0000 0.0000 
  0.0000 85.05714285714286 0.0000 
  0.0000 0.0000 85.05714285714286
 C  Si 
 2021 22
Cartesian 
0.5714285714285714	20.095238095238095	84.85714285714286
0.5476190476190477	21.5	84.85714285714286
0.5844155844155845	24.051948051948052	84.85714285714286
0.680952380952381	0.5476190476190477	84.85714285714286
0.7532467532467533	17.515151515151516	84.85714285714286
0.8571428571428571	16.095238095238095	84.85714285714286
0.9648033126293996	7.830227743271221	84.85714285714286
0.9653679653679654	9.29004329004329	84.85714285714286
1.0612244897959182	3.9229024943310655	84.85714285714286
1.0476190476190477	11.904761904761905	84.85714285714286
1.1428571428571428	5.333333333333333	84.85714285714286
1.6935817805383024	26.086956521739133	84.85714285714286
1.6706349206349207	27.44047619047619	84.85714285714286
1.6285714285714288	30.09047619047619	84.85714285714286
1.8095238095238095	0.6666666666666666	84.85714285714286
1.8514285714285716	19.531428571428574	84.85714285714286
1.800865800865801	22.18181818181818	84.85714285714286
1.8095238095238095	23.428571428571427	84.85714285714286
1.9047619047619047	18.19047619047619	84.85714285714286
2.0865800865800868	15.515151515151516	84.85714285714286
2.1904761904761907	10.0	84.85714285714286
2.2222222222222223	11.345238095238095	84.85714285714286
2.2857142857142856	3.3333333333333335	84.85714285714286
2.2857142857142856	7.380952380952381	84.85714285714286
2.3722943722943723	6.086580086580087	84.85714285714286
2.3722943722943723	14.181818181818182	84.85714285714286
2.5714285714285716	2.0	84.85714285714286
2.6904761904761907	33.37619047619047	84.85714285714286
2.748299319727891	32.172335600907026	84.85714285714286
2.9264069264069263	25.506493506493506	84.85714285714286
2.857142857142857	28.19047619047619	84.85714285714286
2.857142857142857	29.523809523809526	84.85714285714286
3.0476190476190474	20.19047619047619	84.85714285714286
3.0476190476190474	21.523809523809526	84.85714285714286
3.0428571428571427	24.104761904761904	84.85714285714286
3.1801242236024843	17.544513457556935	84.85714285714286
3.320346320346321	16.19047619047619	84.85714285714286
3.47047619047619	8.102857142857143	84.85714285714286
3.4285714285714284	9.428571428571429	84.85714285714286
3.4285714285714284	12.095238095238095	84.85714285714286
3.5151515151515147	13.515151515151516	84.85714285714286
3.6326530612244903	4.113378684807256	84.85714285714286
3.61038961038961	5.515151515151515	84.85714285714286
3.857142857142857	1.6883116883116882	84.85714285714286
3.9722222222222223	31.523809523809526	84.85714285714286
3.9047619047619047	34.095238095238095	84.85714285714286
3.9047619047619047	35.333333333333336	84.85714285714286
4.0	30.19047619047619	84.85714285714286
4.095238095238095	0.47619047619047616	84.85714285714286
4.158730158730158	26.178571428571427	84.85714285714286
4.095238095238095	27.523809523809526	84.85714285714286
4.285714285714286	22.19047619047619	84.85714285714286
4.285714285714286	23.523809523809526	84.85714285714286
4.428571428571429	18.19047619047619	84.85714285714286
4.380952380952381	19.523809523809526	84.85714285714286
4.571428571428571	15.523809523809524	84.85714285714286
4.73015873015873	10.107142857142858	84.85714285714286
4.712018140589569	11.46485260770975	84.85714285714286
4.666666666666667	14.19047619047619	84.85714285714286
4.761904761904762	6.285714285714286	84.85714285714286
4.753246753246753	7.6103896103896105	84.85714285714286
4.957393483709273	3.6791979949874682	84.85714285714286
4.967418546365915	37.50877192982456	84.85714285714286
5.0476190476190474	2.380952380952381	84.85714285714286
5.12215320910973	33.515527950310556	84.85714285714286
5.0476190476190474	36.19047619047619	84.85714285714286
5.142857142857143	32.095238095238095	84.85714285714286
5.142857142857143	40.252100840336134	84.85714285714286
5.346938775510204	28.208616780045354	84.85714285714286
5.3121693121693125	29.571428571428573	84.85714285714286
5.428571428571429	25.523809523809526	84.85714285714286
5.598343685300207	20.182194616977227	84.85714285714286
5.523809523809524	21.523809523809526	84.85714285714286
5.523809523809524	24.19047619047619	84.85714285714286
5.619047619047619	17.523809523809526	84.85714285714286
5.714285714285714	16.19047619047619	84.85714285714286
5.900226757369614	9.600907029478458	84.85714285714286
5.904761904761905	12.19047619047619	84.85714285714286
5.9147869674185465	13.563909774436091	84.85714285714286
6.0	8.19047619047619	84.85714285714286
6.086580086580087	5.705627705627705	84.85714285714286
6.095238095238095	38.19047619047619	84.85714285714286
6.181818181818182	4.372294372294372	84.85714285714286
6.190476190476191	39.61904761904762	84.85714285714286
6.285714285714286	34.19047619047619	84.85714285714286
6.285714285714286	35.61904761904762	84.85714285714286
6.380952380952381	1.9047619047619047	84.85714285714286
6.380952380952381	31.523809523809526	84.85714285714286
6.476190476190476	30.285714285714285	84.85714285714286
6.571428571428571	0.6666666666666666	84.85714285714286
6.641821946169772	26.19461697722567	84.85714285714286
6.571428571428571	27.61904761904762	84.85714285714286
6.761904761904762	18.19047619047619	84.85714285714286
6.761904761904762	22.19047619047619	84.85714285714286
6.7482993197278915	23.600907029478456	84.85714285714286
6.857142857142857	19.523809523809526	84.85714285714286
7.01984126984127	15.619047619047619	84.85714285714286
7.0476190476190474	14.285714285714286	84.85714285714286
7.155844155844156	10.285714285714286	84.85714285714286
7.129251700680273	11.578231292517007	84.85714285714286
7.378684807256237	6.321995464852607	84.85714285714286
7.333333333333333	7.619047619047619	84.85714285714286
7.437229437229438	36.294372294372295	84.85714285714286
7.428571428571429	37.61904761904762	84.85714285714286
7.428571428571429	40.285714285714285	84.85714285714286
7.428571428571429	41.714285714285715	84.85714285714286
7.523809523809524	3.8095238095238093	84.85714285714286
7.598343685300207	33.61076604554866	84.85714285714286
7.619047619047619	2.5714285714285716	84.85714285714286
7.619047619047619	32.19047619047619	84.85714285714286
7.739130434782608	29.614906832298136	84.85714285714286
7.8008658008658	28.27705627705628	84.85714285714286
7.904761904761905	25.523809523809526	84.85714285714286
8.03030303030303	20.25974025974026	84.85714285714286
8.024844720496894	21.614906832298136	84.85714285714286
7.991341991341991	24.27705627705628	84.85714285714286
8.137142857142857	17.62666666666667	84.85714285714286
8.19047619047619	13.619047619047619	84.85714285714286
8.19047619047619	16.285714285714285	84.85714285714286
8.306418219461698	12.29399585921325	84.85714285714286
8.438095238095238	9.71809523809524	84.85714285714286
8.55072463768116	8.372670807453417	84.85714285714286
8.640692640692642	38.34199134199134	84.85714285714286
8.576190476190476	39.62857142857143	84.85714285714286
8.562770562770563	42.27705627705628	84.85714285714286
8.698412698412698	4.488095238095238	84.85714285714286
8.666666666666666	5.809523809523809	84.85714285714286
8.714285714285714	35.63492063492064	84.85714285714286
8.655462184873949	43.46778711484594	84.85714285714286
8.80952380952381	34.285714285714285	84.85714285714286
8.920634920634921	31.63095238095238	84.85714285714286
8.952380952380953	0.7619047619047619	84.85714285714286
8.952380952380953	2.0	84.85714285714286
9.021645021645023	27.64069264069264	84.85714285714286
8.952380952380953	30.285714285714285	84.85714285714286
9.12987012987013	26.285714285714285	84.85714285714286
9.163561076604555	23.627329192546583	84.85714285714286
9.247619047619047	19.64761904761905	84.85714285714286
9.238095238095237	22.285714285714285	84.85714285714286
9.333333333333334	18.333333333333332	84.85714285714286
9.428571428571429	14.380952380952381	84.85714285714286
9.428571428571429	15.714285714285714	84.85714285714286
9.676190476190476	10.48	84.85714285714286
9.619047619047619	11.80952380952381	84.85714285714286
9.714285714285714	41.714285714285715	84.85714285714286
9.781746031746032	44.19047619047619	84.85714285714286
9.819047619047618	7.838095238095238	84.85714285714286
9.8008658008658	40.46753246753247	84.85714285714286
9.818181818181818	45.53246753246753	84.85714285714286
9.904761904761905	6.571428571428571	84.85714285714286
9.904761904761905	37.80952380952381	84.85714285714286
10.0	4.0	84.85714285714286
10.0	36.476190476190474	84.85714285714286
10.142857142857142	2.7359307359307357	84.85714285714286
10.095238095238095	32.476190476190474	84.85714285714286
10.086580086580087	33.8008658008658	84.85714285714286
10.226757369614512	28.421768707482993	84.85714285714286
10.19047619047619	29.714285714285715	84.85714285714286
10.380952380952381	24.38095238095238	84.85714285714286
10.380952380952381	25.714285714285715	84.85714285714286
10.476190476190476	20.38095238095238	84.85714285714286
10.476190476190476	21.80952380952381	84.85714285714286
10.571428571428571	17.80952380952381	84.85714285714286
10.666666666666666	16.476190476190474	84.85714285714286
10.761904761904763	13.80952380952381	84.85714285714286
10.857142857142858	12.476190476190476	84.85714285714286
10.943722943722943	9.991341991341992	84.85714285714286
11.034632034632034	39.904761904761905	84.85714285714286
11.034632034632034	42.476190476190474	84.85714285714286
11.047619047619047	8.571428571428571	84.85714285714286
11.047619047619047	43.714285714285715	84.85714285714286
11.047619047619047	46.285714285714285	84.85714285714286
11.180124223602485	6.020703933747412	84.85714285714286
11.142857142857142	38.57142857142857	84.85714285714286
11.129251700680273	47.50566893424036	84.85714285714286
11.251700680272108	4.684807256235827	84.85714285714286
11.28	34.48380952380952	84.85714285714286
11.242857142857142	35.83809523809524	84.85714285714286
11.407867494824016	30.467908902691512	84.85714285714286
11.333333333333334	31.904761904761905	84.85714285714286
11.438095238095238	0.8857142857142858	84.85714285714286
11.428571428571429	2.1904761904761907	84.85714285714286
11.424036281179138	27.88662131519274	84.85714285714286
11.523809523809524	26.476190476190474	84.85714285714286
11.619047619047619	23.80952380952381	84.85714285714286
11.777777777777779	19.821428571428573	84.85714285714286
11.714285714285714	22.476190476190474	84.85714285714286
11.80952380952381	18.476190476190474	84.85714285714286
11.979296066252587	14.563146997929607	84.85714285714286
11.904761904761905	15.904761904761905	84.85714285714286
12.169772256728779	10.658385093167702	84.85714285714286
12.095238095238095	11.904761904761905	84.85714285714286
12.201680672268909	47.943977591036415	84.85714285714286
12.285714285714286	8.0	84.85714285714286
12.285714285714286	40.476190476190474	84.85714285714286
12.285714285714286	41.80952380952381	84.85714285714286
12.285714285714286	44.285714285714285	84.85714285714286
12.285714285714286	45.61904761904762	84.85714285714286
12.380952380952381	6.666666666666667	84.85714285714286
12.428571428571429	36.54545454545455	84.85714285714286
12.380952380952381	37.904761904761905	84.85714285714286
12.619047619047619	4.111111111111111	84.85714285714286
12.571428571428571	32.476190476190474	84.85714285714286
12.571428571428571	33.80952380952381	84.85714285714286
12.658008658008658	2.8484848484848486	84.85714285714286
12.666666666666666	29.80952380952381	84.85714285714286
12.818181818181818	25.87012987012987	84.85714285714286
12.761904761904763	28.476190476190474	84.85714285714286
12.857142857142858	24.459627329192546	84.85714285714286
13.034632034632036	20.476190476190474	84.85714285714286
13.026915113871636	21.801242236024844	84.85714285714286
13.047619047619047	17.904761904761905	84.85714285714286
13.142857142857142	14.0	84.85714285714286
13.142857142857142	16.571428571428573	84.85714285714286
13.238095238095237	12.571428571428571	84.85714285714286
13.498964803312628	8.670807453416149	84.85714285714286
13.428571428571429	10.0	84.85714285714286
13.519274376417235	39.88662131519274	84.85714285714286
13.523809523809524	42.38095238095238	84.85714285714286
13.523809523809524	43.714285714285715	84.85714285714286
13.523809523809524	47.333333333333336	84.85714285714286
13.619047619047619	6.095238095238095	84.85714285714286
13.666666666666666	35.80952380952381	84.85714285714286
13.61038961038961	38.56277056277057	84.85714285714286
13.619047619047619	46.19047619047619	84.85714285714286
13.714285714285714	34.476190476190474	84.85714285714286
13.8008658008658	4.848484848484849	84.85714285714286
13.918367346938775	0.9705215419501133	84.85714285714286
13.904761904761905	2.2857142857142856	84.85714285714286
13.904761904761905	30.476190476190474	84.85714285714286
13.904761904761905	31.80952380952381	84.85714285714286
14.082251082251084	26.476190476190474	84.85714285714286
14.013605442176871	27.82766439909297	84.85714285714286
14.181818181818182	23.8008658008658	84.85714285714286
14.285714285714286	18.571428571428573	84.85714285714286
14.299319727891156	19.82766439909297	84.85714285714286
14.268398268398268	22.445887445887447	84.85714285714286
14.405797101449277	14.662525879917185	84.85714285714286
14.372294372294371	15.991341991341992	84.85714285714286
14.55844155844156	12.0	84.85714285714286
14.645962732919255	10.658385093167702	84.85714285714286
14.753246753246753	8.086580086580087	84.85714285714286
14.83116883116883	40.45887445887446	84.85714285714286
14.761904761904763	41.714285714285715	84.85714285714286
14.761904761904763	44.285714285714285	84.85714285714286
14.761904761904763	45.61904761904762	84.85714285714286
14.761904761904763	48.095238095238095	84.85714285714286
14.857142857142858	6.761904761904762	84.85714285714286
14.857142857142858	36.476190476190474	84.85714285714286
14.843537414965986	37.88662131519274	84.85714285714286
15.047619047619047	2.9523809523809526	84.85714285714286
15.047619047619047	4.190476190476191	84.85714285714286
15.104761904761904	32.47238095238095	84.85714285714286
15.034013605442178	33.827664399092974	84.85714285714286
15.142857142857142	0.47619047619047616	84.85714285714286
15.142857142857142	29.80952380952381	84.85714285714286
15.295238095238094	25.813333333333336	84.85714285714286
15.238095238095237	28.476190476190474	84.85714285714286
15.375238095238094	24.483809523809523	84.85714285714286
15.428571428571429	21.904761904761905	84.85714285714286
15.598343685300208	16.658385093167702	84.85714285714286
15.523809523809524	17.952380952380953	84.85714285714286
15.515151515151516	20.562770562770563	84.85714285714286
15.619047619047619	14.0	84.85714285714286
15.705627705627705	12.753246753246753	84.85714285714286
15.891774891774892	10.0	84.85714285714286
16.0	8.666666666666666	84.85714285714286
16.074534161490686	39.89648033126294	84.85714285714286
16.0	42.476190476190474	84.85714285714286
16.0	43.714285714285715	84.85714285714286
16.0	46.285714285714285	84.85714285714286
16.0	47.61904761904762	84.85714285714286
16.095238095238095	6.190476190476191	84.85714285714286
16.095238095238095	35.80952380952381	84.85714285714286
16.095238095238095	38.476190476190474	84.85714285714286
16.253968253968253	2.369047619047619	84.85714285714286
16.19047619047619	4.857142857142857	84.85714285714286
16.253968253968253	34.48809523809524	84.85714285714286
16.285714285714285	31.80952380952381	84.85714285714286
16.372294372294373	1.0389610389610389	84.85714285714286
16.38095238095238	30.476190476190474	84.85714285714286
16.476190476190474	26.476190476190474	84.85714285714286
16.476190476190474	27.904761904761905	84.85714285714286
16.645962732919255	23.89648033126294	84.85714285714286
16.708571428571428	20.00761904761905	84.85714285714286
16.666666666666668	22.571428571428573	84.85714285714286
16.80952380952381	16.0	84.85714285714286
16.761904761904763	18.666666666666668	84.85714285714286
16.857142857142858	14.666666666666666	84.85714285714286
16.952380952380953	12.095238095238095	84.85714285714286
17.047619047619047	10.666666666666666	84.85714285714286
17.217391304347828	44.37267080745342	84.85714285714286
17.142857142857142	45.61904761904762	84.85714285714286
17.14761904761905	48.2	84.85714285714286
17.312629399585923	6.848861283643893	84.85714285714286
17.238095238095237	8.19047619047619	84.85714285714286
17.289682539682538	37.82142857142857	84.85714285714286
17.32034632034632	40.476190476190474	84.85714285714286
17.238095238095237	41.714285714285715	84.85714285714286
17.4025974025974	4.363636363636364	84.85714285714286
17.333333333333332	36.476190476190474	84.85714285714286
17.428571428571427	3.0476190476190474	84.85714285714286
17.41991341991342	33.896103896103895	84.85714285714286
17.523809523809526	32.476190476190474	84.85714285714286
17.652380952380952	29.847619047619045	84.85714285714286
17.759637188208618	25.845804988662135	84.85714285714286
17.714285714285715	28.476190476190474	84.85714285714286
17.873015873015873	21.916666666666668	84.85714285714286
17.80952380952381	24.476190476190474	84.85714285714286
17.904761904761905	20.666666666666668	84.85714285714286
18.082251082251084	14.095238095238095	84.85714285714286
18.0	16.666666666666668	84.85714285714286
18.0	18.0	84.85714285714286
18.19047619047619	12.761904761904763	84.85714285714286
18.285714285714285	10.095238095238095	84.85714285714286
18.38095238095238	42.38095238095238	84.85714285714286
18.38095238095238	43.714285714285715	84.85714285714286
18.38095238095238	46.285714285714285	84.85714285714286
18.38095238095238	47.523809523809526	84.85714285714286
18.476190476190474	8.857142857142858	84.85714285714286
18.476190476190474	38.38095238095238	84.85714285714286
18.523809523809526	39.74025974025974	84.85714285714286
18.58503401360544	4.970521541950113	84.85714285714286
18.571428571428573	6.285714285714286	84.85714285714286
18.571428571428573	35.80952380952381	84.85714285714286
18.666666666666668	2.380952380952381	84.85714285714286
18.666666666666668	34.476190476190474	84.85714285714286
18.80952380952381	30.571428571428573	84.85714285714286
18.761904761904763	31.904761904761905	84.85714285714286
18.848484848484848	1.1341991341991342	84.85714285714286
18.931677018633543	27.89648033126294	84.85714285714286
18.952380952380953	26.476190476190474	84.85714285714286
19.047619047619047	22.571428571428573	84.85714285714286
19.047619047619047	23.904761904761905	84.85714285714286
19.142857142857142	18.666666666666668	84.85714285714286
19.142857142857142	20.0	84.85714285714286
19.25170068027211	14.684807256235828	84.85714285714286
19.238095238095237	16.0	84.85714285714286
19.428571428571427	12.095238095238095	84.85714285714286
19.523809523809526	10.761904761904763	84.85714285714286
19.587301587301585	45.63095238095238	84.85714285714286
19.61904761904762	41.80952380952381	84.85714285714286
19.61904761904762	44.285714285714285	84.85714285714286
19.666666666666668	48.20634920634921	84.85714285714286
19.772256728778466	6.9730848861283645	84.85714285714286
19.714285714285715	8.285714285714286	84.85714285714286
19.7965367965368	37.80952380952381	84.85714285714286
19.714285714285715	40.476190476190474	84.85714285714286
19.80952380952381	4.380952380952381	84.85714285714286
19.80952380952381	36.476190476190474	84.85714285714286
19.904761904761905	3.0476190476190474	84.85714285714286
19.97929606625259	32.56314699792961	84.85714285714286
19.896103896103895	33.896103896103895	84.85714285714286
20.053333333333335	29.91238095238095	84.85714285714286
20.095238095238095	0.47619047619047616	84.85714285714286
20.095238095238095	25.904761904761905	84.85714285714286
20.095238095238095	28.571428571428573	84.85714285714286
20.19047619047619	24.571428571428573	84.85714285714286
20.393939393939394	16.666666666666668	84.85714285714286
20.38095238095238	18.0	84.85714285714286
20.38095238095238	20.571428571428573	84.85714285714286
20.38095238095238	21.904761904761905	84.85714285714286
20.476190476190474	14.0	84.85714285714286
20.571428571428573	12.666666666666666	84.85714285714286
20.761904761904763	46.285714285714285	84.85714285714286
20.793650793650794	47.62301587301587	84.85714285714286
20.848484848484848	10.181818181818182	84.85714285714286
20.93939393939394	38.476190476190474	84.85714285714286
20.91511387163561	39.83022774327122	84.85714285714286
20.857142857142858	42.38095238095238	84.85714285714286
20.857142857142858	43.714285714285715	84.85714285714286
20.952380952380953	8.857142857142858	84.85714285714286
21.026915113871638	35.89648033126294	84.85714285714286
21.089523809523808	5.055238095238095	84.85714285714286
21.047619047619047	6.380952380952381	84.85714285714286
21.038961038961038	34.484848484848484	84.85714285714286
21.2	2.48	84.85714285714286
21.142857142857142	31.904761904761905	84.85714285714286
21.238095238095237	30.571428571428573	84.85714285714286
21.333333333333332	1.1428571428571428	84.85714285714286
21.333333333333332	26.476190476190474	84.85714285714286
21.333333333333332	27.904761904761905	84.85714285714286
21.476190476190474	23.974025974025974	84.85714285714286
21.523809523809526	18.666666666666668	84.85714285714286
21.51904761904762	22.58095238095238	84.85714285714286
21.693581780538302	14.753623188405797	84.85714285714286
21.61904761904762	16.095238095238095	84.85714285714286
21.60544217687075	19.981859410430836	84.85714285714286
21.904761904761905	12.19047619047619	84.85714285714286
22.034632034632036	10.887445887445887	84.85714285714286
22.0	45.714285714285715	84.85714285714286
22.06746031746032	48.285714285714285	84.85714285714286
22.095238095238095	40.38095238095238	84.85714285714286
22.095238095238095	41.76190476190476	84.85714285714286
22.095238095238095	44.285714285714285	84.85714285714286
22.247619047619047	7.051428571428572	84.85714285714286
22.19047619047619	8.380952380952381	84.85714285714286
22.19047619047619	37.80952380952381	84.85714285714286
22.126984126984127	49.51322751322751	84.85714285714286
22.310559006211182	4.472049689440994	84.85714285714286
22.285714285714285	33.80952380952381	84.85714285714286
22.285714285714285	36.476190476190474	84.85714285714286
22.38095238095238	3.142857142857143	84.85714285714286
22.372294372294373	32.484848484848484	84.85714285714286
22.476190476190474	29.904761904761905	84.85714285714286
22.571428571428573	0.5714285714285714	84.85714285714286
22.571428571428573	25.904761904761905	84.85714285714286
22.5578231292517	28.55328798185941	84.85714285714286
22.67142857142857	20.65714285714286	84.85714285714286
22.666666666666668	22.0	84.85714285714286
22.666666666666668	24.571428571428573	84.85714285714286
22.819875776397517	14.115942028985506	84.85714285714286
22.761904761904763	16.666666666666668	84.85714285714286
22.761904761904763	18.0	84.85714285714286
22.952380952380953	12.857142857142858	84.85714285714286
23.27437641723356	10.326530612244898	84.85714285714286
23.24310776942356	43.67919799498747	84.85714285714286
23.238095238095237	46.285714285714285	84.85714285714286
23.238095238095237	47.61904761904762	84.85714285714286
23.333333333333332	9.047619047619047	84.85714285714286
23.285714285714285	34.476190476190474	84.85714285714286
23.333333333333332	39.714285714285715	84.85714285714286
23.333333333333332	42.38095238095238	84.85714285714286
23.274725274725274	49.94139194139194	84.85714285714286
23.428571428571427	6.476190476190476	84.85714285714286
23.428571428571427	38.38095238095238	84.85714285714286
23.523809523809526	5.142857142857143	84.85714285714286
23.61904761904762	2.4761904761904763	84.85714285714286
23.61038961038961	31.8961038961039	84.85714285714286
23.714285714285715	1.2380952380952381	84.85714285714286
23.78174603174603	27.80952380952381	84.85714285714286
23.714285714285715	30.476190476190474	84.85714285714286
23.80952380952381	22.571428571428573	84.85714285714286
23.80952380952381	26.476190476190474	84.85714285714286
23.94616977225673	15.983436853002072	84.85714285714286
23.917748917748916	18.571428571428573	84.85714285714286
23.904761904761905	19.904761904761905	84.85714285714286
23.904761904761905	23.80952380952381	84.85714285714286
24.0	14.666666666666666	84.85714285714286
24.19047619047619	12.476190476190476	84.85714285714286
24.38095238095238	11.047619047619047	84.85714285714286
24.455486542443065	45.61076604554866	84.85714285714286
24.48917748917749	8.476190476190476	84.85714285714286
24.476190476190474	44.285714285714285	84.85714285714286
24.476190476190474	48.285714285714285	84.85714285714286
24.476190476190474	49.523809523809526	84.85714285714286
24.571428571428573	40.38095238095238	84.85714285714286
24.562770562770567	41.8008658008658	84.85714285714286
24.666666666666668	7.142857142857143	84.85714285714286
24.761904761904763	3.142857142857143	84.85714285714286
24.761904761904763	4.476190476190476	84.85714285714286
24.761904761904763	32.476190476190474	84.85714285714286
24.931677018633543	28.467908902691512	84.85714285714286
24.93939393939394	29.80952380952381	84.85714285714286
24.952380952380953	0.5714285714285714	84.85714285714286
25.047619047619047	13.619047619047619	84.85714285714286
25.047619047619047	16.5578231292517	84.85714285714286
25.047619047619047	21.904761904761905	84.85714285714286
25.03896103896104	25.800865800865804	84.85714285714286
25.14761904761905	17.81904761904762	84.85714285714286
25.142857142857142	20.571428571428573	84.85714285714286
25.134199134199136	24.389610389610386	84.85714285714286
25.52857142857143	50.10476190476191	84.85714285714286
25.686507936507933	10.476190476190476	84.85714285714286
25.61904761904762	46.19047619047619	84.85714285714286
25.61904761904762	47.523809523809526	84.85714285714286
25.62857142857143	51.233333333333334	84.85714285714286
25.714285714285715	9.142857142857142	84.85714285714286
25.714285714285715	43.714285714285715	84.85714285714286
25.80952380952381	6.476190476190476	84.85714285714286
25.80952380952381	42.38095238095238	84.85714285714286
25.904761904761905	5.142857142857143	84.85714285714286
25.904761904761905	39.714285714285715	84.85714285714286
26.0	2.5714285714285716	84.85714285714286
26.0	31.80952380952381	84.85714285714286
26.095238095238095	1.2380952380952381	84.85714285714286
26.137142857142855	27.817142857142855	84.85714285714286
26.095238095238095	30.476190476190474	84.85714285714286
26.257936507936506	16.095238095238095	84.85714285714286
26.19047619047619	26.476190476190474	84.85714285714286
26.285714285714285	14.666666666666666	84.85714285714286
26.29437229437229	22.484848484848484	84.85714285714286
26.285714285714285	23.80952380952381	84.85714285714286
26.372294372294373	18.658008658008658	84.85714285714286
26.38095238095238	19.904761904761905	84.85714285714286
26.74891774891775	49.523809523809526	84.85714285714286
26.825396825396826	45.63095238095238	84.85714285714286
26.825396825396826	48.20238095238095	84.85714285714286
26.782608695652172	52.00828157349896	84.85714285714286
27.026915113871638	7.134575569358178	84.85714285714286
26.952380952380953	8.476190476190476	84.85714285714286
27.010351966873706	11.06832298136646	84.85714285714286
26.952380952380953	12.476190476190476	84.85714285714286
27.01984126984127	41.714285714285715	84.85714285714286
26.952380952380953	44.38095238095238	84.85714285714286
27.047619047619047	40.38095238095238	84.85714285714286
27.2008281573499	3.163561076604555	84.85714285714286
27.142857142857142	4.476190476190476	84.85714285714286
27.21031746031746	36.57142857142857	84.85714285714286
27.225108225108226	38.0	84.85714285714286
27.238095238095237	32.476190476190474	84.85714285714286
27.27437641723356	33.85034013605442	84.85714285714286
27.333333333333332	0.5714285714285714	84.85714285714286
27.333333333333332	28.476190476190474	84.85714285714286
27.333333333333332	29.80952380952381	84.85714285714286
27.428571428571427	24.476190476190474	84.85714285714286
27.428571428571427	25.80952380952381	84.85714285714286
27.51515151515152	13.515151515151516	84.85714285714286
27.523809523809526	16.476190476190474	84.85714285714286
27.523809523809526	17.904761904761905	84.85714285714286
27.523809523809526	20.476190476190474	84.85714285714286
27.606060606060606	21.80952380952381	84.85714285714286
27.952380952380953	51.42857142857143	84.85714285714286
28.0	46.285714285714285	84.85714285714286
28.0	47.61904761904762	84.85714285714286
28.0	50.19047619047619	84.85714285714286
28.211180124223603	8.960662525879917	84.85714285714286
28.19047619047619	42.285714285714285	84.85714285714286
28.19047619047619	43.61904761904762	84.85714285714286
28.285714285714285	6.380952380952381	84.85714285714286
28.276190476190475	10.352380952380953	84.85714285714286
28.41269841269841	2.5753968253968256	84.85714285714286
28.38095238095238	5.0476190476190474	84.85714285714286
28.428571428571427	35.904761904761905	84.85714285714286
28.38095238095238	38.476190476190474	84.85714285714286
28.38095238095238	39.80952380952381	84.85714285714286
28.50103519668737	1.2339544513457557	84.85714285714286
28.545454545454547	27.79220779220779	84.85714285714286
28.55072463768116	30.467908902691512	84.85714285714286
28.50103519668737	31.80538302277433	84.85714285714286
28.48917748917749	34.476190476190474	84.85714285714286
28.571428571428573	26.476190476190474	84.85714285714286
28.666666666666668	19.80952380952381	84.85714285714286
28.69151138716356	23.80538302277433	84.85714285714286
28.761904761904763	14.25062656641604	84.85714285714286
28.753246753246756	15.705627705627705	84.85714285714286
28.761904761904763	18.38095238095238	84.85714285714286
28.753246753246756	22.467532467532468	84.85714285714286
29.14761904761905	49.51428571428571	84.85714285714286
29.2008281573499	53.32919254658385	84.85714285714286
29.238095238095237	45.61904761904762	84.85714285714286
29.238095238095237	48.19047619047619	84.85714285714286
29.238095238095237	52.0	84.85714285714286
29.333333333333332	44.285714285714285	84.85714285714286
29.503105590062113	6.9440993788819885	84.85714285714286
29.428571428571427	8.272108843537415	84.85714285714286
29.428571428571427	10.857142857142858	84.85714285714286
29.428571428571427	41.714285714285715	84.85714285714286
29.523809523809526	37.80952380952381	84.85714285714286
29.523809523809526	40.38095238095238	84.85714285714286
29.682539682539684	3.0595238095238093	84.85714285714286
29.61904761904762	4.380952380952381	84.85714285714286